set VV := 0 1 2 3 4 5 6 7 8 9 10 11 12 13 14 15 16 17 18 19 20 21 22 23 24 25 26 27 28 29 30 31 32 33 34 35 36 37 38 39 40 41 42 43 ;
set VS := 0 1 2 3 4 5 6 7 8 9 10 11 12 13 14 15 16 17 18 19 20 21 22 23 24 25 26 27 28 29 30 31 32 33 34 35 36 37 38 39 40 41 42 43 44 45 46 47 48 49 50 51 52 53 54 55 56 57 58 59 60 61 62 63 64 65 66 67 68 69 70 71 72 73 74 75 76 77 78 79 80 81 82 83 84 85 86 87 88 89 90 91 ;
param cv := 
0 25
1 19
2 15
3 12
4 23
5 11
6 17
7 20
8 22
9 17
10 21
11 19
12 13
13 18
14 24
15 11
16 23
17 16
18 17
19 10
20 22
21 14
22 11
23 11
24 13
25 13
26 12
27 24
28 12
29 21
30 24
31 14
32 11
33 22
34 22
35 23
36 11
37 23
38 16
39 24
40 12
41 11
42 25
43 10
;
param cs := 
0 33
1 37
2 29
3 21
4 40
5 21
6 32
7 23
8 20
9 35
10 24
11 29
12 21
13 28
14 32
15 39
16 23
17 27
18 27
19 28
20 22
21 31
22 37
23 38
24 36
25 23
26 31
27 38
28 35
29 21
30 25
31 36
32 32
33 39
34 33
35 21
36 29
37 24
38 39
39 29
40 20
41 31
42 26
43 33
44 36
45 38
46 22
47 36
48 32
49 31
50 28
51 21
52 24
53 24
54 24
55 26
56 39
57 21
58 33
59 26
60 22
61 40
62 23
63 37
64 34
65 22
66 23
67 23
68 25
69 37
70 20
71 21
72 36
73 40
74 29
75 30
76 39
77 30
78 29
79 32
80 39
81 26
82 34
83 37
84 28
85 24
86 21
87 38
88 20
89 31
90 29
91 24
;
param bv:	 0 1 2 3 4 5 6 7 8 9 10 11 12 13 14 15 16 17 18 19 20 21 22 23 24 25 26 27 28 29 30 31 32 33 34 35 36 37 38 39 40 41 42 43 := 
		0 0 0 0 0 0 0 0 0 0 0 0 16 0 0 0 0 0 0 0 0 0 0 0 17 0 0 0 0 0 0 0 0 0 0 0 0 0 14 0 0 0 0 0 0 
		1 0 0 0 0 0 0 0 0 0 0 0 0 0 17 0 0 0 0 0 0 0 0 0 0 0 0 0 0 0 0 0 0 0 0 0 0 0 0 0 0 24 0 0 0 
		2 0 0 0 0 0 0 0 0 0 0 0 17 0 0 0 14 0 0 0 0 0 0 0 0 24 0 16 0 0 0 0 0 0 0 0 0 0 0 0 0 0 0 0 0 
		3 0 0 0 0 0 16 0 0 0 16 0 0 0 0 0 0 0 0 0 0 0 0 0 0 0 0 0 0 0 0 0 0 0 0 21 0 0 0 0 18 0 0 15 0 
		4 0 0 0 0 0 11 17 0 0 0 0 0 0 0 0 0 0 0 0 18 12 16 0 0 0 0 0 0 0 0 0 0 0 12 0 0 22 0 0 0 0 0 0 0 
		5 0 0 0 0 0 0 18 0 0 0 0 0 0 0 0 0 0 0 0 0 0 0 0 0 16 0 18 0 0 0 0 0 0 0 0 0 0 0 0 0 0 0 16 0 
		6 0 0 0 0 0 0 0 0 0 0 0 0 20 0 0 0 0 0 0 0 0 0 0 0 0 0 0 0 0 0 0 0 0 0 0 0 0 0 0 0 10 0 0 0 
		7 0 0 0 0 0 0 0 0 0 0 23 24 0 0 0 0 0 0 0 0 0 0 0 0 16 0 12 0 0 0 0 0 19 0 23 0 0 0 0 0 0 0 16 0 
		8 0 0 0 0 0 0 0 0 0 0 0 0 20 0 0 0 0 20 0 13 0 22 0 0 0 0 0 0 0 0 0 0 0 0 0 0 0 0 0 0 0 0 0 24 
		9 0 0 0 0 0 0 0 0 0 0 0 0 0 0 0 0 0 0 0 0 0 0 22 0 17 0 0 0 0 0 0 0 0 0 0 0 0 0 0 0 0 0 0 0 
		10 0 0 0 0 0 0 0 0 0 0 0 0 0 18 0 0 0 0 0 0 0 0 20 17 0 13 0 0 0 0 0 0 0 0 0 0 0 25 24 0 0 0 0 0 
		11 0 0 0 0 0 0 0 0 0 0 0 0 20 0 0 0 0 0 0 0 15 0 0 0 0 0 0 0 0 17 0 0 0 0 21 0 0 0 0 0 0 0 0 0 
		12 0 0 0 0 0 0 0 0 0 0 0 0 0 0 0 0 0 0 0 0 0 0 0 0 0 0 0 0 0 0 0 0 0 0 0 18 0 0 0 21 0 0 0 0 
		13 0 0 0 0 0 0 0 0 0 0 0 0 0 0 0 18 0 0 0 0 0 11 0 0 0 0 0 0 0 0 0 0 0 13 0 0 11 0 14 0 0 0 0 0 
		14 0 0 0 0 0 0 0 0 0 0 0 0 0 0 0 19 0 0 18 0 0 0 0 0 0 0 0 0 0 0 0 0 0 0 0 0 16 0 0 0 0 0 0 0 
		15 0 0 0 0 0 0 0 0 0 0 0 0 0 0 0 0 0 0 16 0 0 24 0 0 0 0 0 0 0 19 0 0 0 0 19 0 0 0 0 0 0 0 0 0 
		16 0 0 0 0 0 0 0 0 0 0 0 0 0 0 0 0 0 0 0 19 13 0 0 0 0 21 0 0 0 0 0 0 0 0 0 0 0 0 23 0 0 0 0 0 
		17 0 0 0 0 0 0 0 0 0 0 0 0 0 0 0 0 0 0 0 0 0 0 0 0 0 0 0 0 0 0 0 0 0 0 0 0 0 0 0 0 0 22 18 0 
		18 0 0 0 0 0 0 0 0 0 0 0 0 0 0 0 0 0 0 0 0 19 0 0 0 0 0 0 0 0 0 0 0 0 0 0 0 13 0 0 0 0 0 0 0 
		19 0 0 0 0 0 0 0 0 0 0 0 0 0 0 0 0 0 0 0 0 0 0 14 0 0 0 0 24 0 0 0 12 0 0 0 0 0 0 0 0 0 0 0 0 
		20 0 0 0 0 0 0 0 0 0 0 0 0 0 0 0 0 0 0 0 0 0 0 17 0 0 0 0 0 0 0 0 0 0 0 21 0 0 0 0 0 0 0 0 0 
		21 0 0 0 0 0 0 0 0 0 0 0 0 0 0 0 0 0 0 0 0 0 0 0 0 0 0 0 0 0 0 0 0 0 0 0 0 12 10 0 0 19 0 0 0 
		22 0 0 0 0 0 0 0 0 0 0 0 0 0 0 0 0 0 0 0 0 0 0 0 0 0 13 0 0 0 0 0 13 0 20 0 0 13 0 0 0 21 14 13 21 
		23 0 0 0 0 0 0 0 0 0 0 0 0 0 0 0 0 0 0 0 0 0 0 0 0 0 0 0 0 0 0 0 0 12 0 0 14 0 0 0 0 23 0 0 0 
		24 0 0 0 0 0 0 0 0 0 0 0 0 0 0 0 0 0 0 0 0 0 0 0 0 0 0 13 0 0 0 0 0 14 0 0 0 0 0 0 24 21 0 0 0 
		25 0 0 0 0 0 0 0 0 0 0 0 0 0 0 0 0 0 0 0 0 0 0 0 0 0 0 0 0 0 0 0 0 0 0 0 25 0 0 0 0 0 0 10 0 
		26 0 0 0 0 0 0 0 0 0 0 0 0 0 0 0 0 0 0 0 0 0 0 0 0 0 0 0 0 0 0 18 0 24 0 0 0 0 0 0 0 0 21 0 0 
		27 0 0 0 0 0 0 0 0 0 0 0 0 0 0 0 0 0 0 0 0 0 0 0 0 0 0 0 0 0 0 0 0 18 0 0 0 0 0 0 0 21 0 13 0 
		28 0 0 0 0 0 0 0 0 0 0 0 0 0 0 0 0 0 0 0 0 0 0 0 0 0 0 0 0 0 0 0 17 0 0 0 0 0 0 0 0 0 0 0 0 
		29 0 0 0 0 0 0 0 0 0 0 0 0 0 0 0 0 0 0 0 0 0 0 0 0 0 0 0 0 0 0 0 0 0 0 0 17 0 0 0 0 0 0 0 0 
		30 0 0 0 0 0 0 0 0 0 0 0 0 0 0 0 0 0 0 0 0 0 0 0 0 0 0 0 0 0 0 0 0 22 0 0 0 0 0 0 0 0 12 21 0 
		31 0 0 0 0 0 0 0 0 0 0 0 0 0 0 0 0 0 0 0 0 0 0 0 0 0 0 0 0 0 0 0 0 0 0 24 0 18 11 0 0 0 0 0 15 
		32 0 0 0 0 0 0 0 0 0 0 0 0 0 0 0 0 0 0 0 0 0 0 0 0 0 0 0 0 0 0 0 0 0 0 0 0 0 0 0 0 0 0 19 0 
		33 0 0 0 0 0 0 0 0 0 0 0 0 0 0 0 0 0 0 0 0 0 0 0 0 0 0 0 0 0 0 0 0 0 0 0 0 0 0 0 0 0 0 0 0 
		34 0 0 0 0 0 0 0 0 0 0 0 0 0 0 0 0 0 0 0 0 0 0 0 0 0 0 0 0 0 0 0 0 0 0 0 0 0 0 0 0 0 0 0 0 
		35 0 0 0 0 0 0 0 0 0 0 0 0 0 0 0 0 0 0 0 0 0 0 0 0 0 0 0 0 0 0 0 0 0 0 0 0 0 0 0 0 0 0 0 0 
		36 0 0 0 0 0 0 0 0 0 0 0 0 0 0 0 0 0 0 0 0 0 0 0 0 0 0 0 0 0 0 0 0 0 0 0 0 0 23 14 0 0 0 0 0 
		37 0 0 0 0 0 0 0 0 0 0 0 0 0 0 0 0 0 0 0 0 0 0 0 0 0 0 0 0 0 0 0 0 0 0 0 0 0 0 0 0 0 0 12 0 
		38 0 0 0 0 0 0 0 0 0 0 0 0 0 0 0 0 0 0 0 0 0 0 0 0 0 0 0 0 0 0 0 0 0 0 0 0 0 0 0 0 0 0 0 0 
		39 0 0 0 0 0 0 0 0 0 0 0 0 0 0 0 0 0 0 0 0 0 0 0 0 0 0 0 0 0 0 0 0 0 0 0 0 0 0 0 0 0 0 14 0 
		40 0 0 0 0 0 0 0 0 0 0 0 0 0 0 0 0 0 0 0 0 0 0 0 0 0 0 0 0 0 0 0 0 0 0 0 0 0 0 0 0 0 0 0 0 
		41 0 0 0 0 0 0 0 0 0 0 0 0 0 0 0 0 0 0 0 0 0 0 0 0 0 0 0 0 0 0 0 0 0 0 0 0 0 0 0 0 0 0 0 0 
		42 0 0 0 0 0 0 0 0 0 0 0 0 0 0 0 0 0 0 0 0 0 0 0 0 0 0 0 0 0 0 0 0 0 0 0 0 0 0 0 0 0 0 0 0 
		43 0 0 0 0 0 0 0 0 0 0 0 0 0 0 0 0 0 0 0 0 0 0 0 0 0 0 0 0 0 0 0 0 0 0 0 0 0 0 0 0 0 0 0 0 
;
param bs:	 0 1 2 3 4 5 6 7 8 9 10 11 12 13 14 15 16 17 18 19 20 21 22 23 24 25 26 27 28 29 30 31 32 33 34 35 36 37 38 39 40 41 42 43 44 45 46 47 48 49 50 51 52 53 54 55 56 57 58 59 60 61 62 63 64 65 66 67 68 69 70 71 72 73 74 75 76 77 78 79 80 81 82 83 84 85 86 87 88 89 90 91 := 
		0 0 0 0 0 0 0 40 0 0 0 31 0 0 0 0 0 0 0 0 0 0 0 0 0 0 0 0 30 0 0 0 0 0 0 0 0 0 0 0 0 0 0 0 0 0 0 37 0 0 38 0 0 0 0 0 0 0 0 0 0 0 0 0 0 0 0 0 26 0 0 0 0 0 0 0 0 0 0 0 0 31 0 25 0 0 0 0 0 0 0 0 0 
		1 0 0 0 0 0 0 0 0 0 0 0 0 32 0 0 0 37 0 35 0 0 37 0 21 0 0 29 0 0 0 0 0 0 22 0 0 0 0 0 32 0 0 0 0 0 0 0 0 0 0 0 32 0 0 0 0 0 0 0 0 0 0 0 0 0 0 0 0 0 0 0 0 0 0 0 0 0 0 0 0 0 0 22 0 0 0 0 23 0 0 0 0 
		2 0 0 0 0 38 0 0 25 0 0 0 0 0 0 0 0 0 0 0 0 0 23 0 0 0 0 0 0 0 0 0 0 0 0 24 0 0 0 0 0 0 0 0 0 0 0 0 0 0 0 0 0 0 0 39 0 0 0 0 0 34 0 30 0 0 0 0 25 0 0 0 23 0 0 0 35 0 0 0 0 0 0 0 0 0 23 0 0 0 0 0 0 
		3 0 0 0 0 0 0 0 0 0 40 0 0 0 0 0 0 0 26 0 0 0 0 0 0 0 0 0 0 0 0 0 0 0 0 0 29 0 0 0 0 0 0 0 0 0 0 0 0 0 0 0 0 0 25 0 0 0 0 26 0 0 0 0 0 0 0 0 0 0 0 0 0 0 0 0 0 0 0 0 0 0 0 0 0 0 0 0 0 23 0 0 0 
		4 0 0 38 0 0 0 27 0 0 0 37 0 0 28 0 0 0 0 0 0 0 0 0 0 0 0 0 0 0 0 0 0 0 0 0 0 0 0 28 0 0 0 0 0 0 0 0 0 0 0 0 0 0 0 0 0 0 33 0 0 32 31 0 0 0 0 0 34 0 0 0 28 25 0 0 0 21 0 0 0 0 0 0 0 0 0 0 0 0 0 0 0 
		5 0 0 0 0 0 0 0 0 0 0 0 0 0 0 0 0 0 0 0 0 0 31 0 0 0 0 0 35 0 0 0 0 0 0 20 0 0 0 0 0 0 0 0 0 0 0 0 0 0 0 0 0 0 0 0 0 0 0 0 35 0 0 0 0 0 0 0 36 0 0 0 0 0 0 0 0 24 0 0 0 36 0 0 0 0 0 0 0 25 0 0 0 
		6 40 0 0 0 27 0 0 0 0 0 0 0 0 24 0 28 0 0 0 0 30 0 0 0 0 0 0 23 0 33 0 27 0 0 0 0 0 0 0 0 23 0 0 0 0 0 0 0 0 0 34 0 0 0 22 22 0 0 25 0 0 0 0 0 0 0 0 0 0 0 0 0 0 0 0 0 0 0 0 0 0 0 0 0 0 0 23 0 0 0 0 39 
		7 0 0 25 0 0 0 0 0 0 0 0 0 0 0 0 0 0 0 0 35 0 0 0 0 0 0 0 0 0 39 23 0 0 0 0 26 0 0 0 0 24 0 0 0 0 0 0 0 0 0 0 0 0 0 0 0 0 0 0 0 0 0 0 0 0 0 0 36 0 0 34 0 0 0 0 21 30 0 0 28 24 0 0 0 25 0 0 0 34 0 0 0 
		8 0 0 0 0 0 0 0 0 0 0 0 0 0 0 0 0 0 0 0 0 0 0 0 0 24 0 35 0 0 0 0 0 0 0 0 0 0 0 0 0 0 0 0 0 0 0 0 0 0 0 0 0 0 0 0 0 0 0 0 0 30 0 0 26 0 0 0 0 31 0 0 0 0 0 0 0 0 0 0 0 0 0 0 0 0 27 0 0 0 0 0 0 
		9 0 0 0 40 0 0 0 0 0 0 0 0 0 0 0 0 30 0 0 0 0 0 0 0 0 20 0 0 35 0 0 29 0 0 0 0 26 0 0 0 0 0 0 0 29 23 0 0 0 0 0 0 0 0 20 0 0 0 0 0 0 37 0 0 0 0 0 0 0 0 0 0 0 0 0 0 0 39 0 0 0 0 0 0 0 0 0 0 0 0 0 0 
		10 31 0 0 0 37 0 0 0 0 0 0 0 0 0 20 0 0 0 0 0 0 0 0 0 0 0 27 0 0 0 0 0 0 0 0 0 0 0 0 0 0 0 0 0 0 0 0 0 0 0 0 0 0 0 0 0 36 0 25 0 32 0 0 23 38 0 0 0 0 0 0 0 0 36 0 0 0 0 0 0 0 0 0 0 0 0 0 0 0 0 37 0 
		11 0 0 0 0 0 0 0 0 0 0 0 0 0 0 22 0 0 0 27 0 0 0 0 0 0 0 0 0 0 21 0 0 0 0 0 0 0 0 0 0 0 0 0 0 0 0 0 0 0 0 0 0 0 0 0 0 0 0 0 0 0 0 0 0 34 0 0 0 0 0 0 0 0 0 0 37 0 0 0 0 0 0 0 0 0 0 0 0 0 0 0 28 
		12 0 32 0 0 0 0 0 0 0 0 0 0 0 0 0 0 0 0 0 0 0 32 0 0 0 0 0 0 0 0 0 0 0 0 0 0 0 0 37 0 0 0 0 0 0 0 0 0 0 0 0 37 0 0 0 0 0 0 0 0 22 0 0 0 0 0 0 0 0 0 0 0 0 0 0 0 0 0 0 0 0 0 26 0 0 0 0 0 0 0 0 0 
		13 0 0 0 0 28 0 24 0 0 0 0 0 0 0 0 0 0 0 0 0 0 0 0 0 38 0 33 0 0 0 25 0 0 0 36 0 0 0 0 0 0 32 0 0 0 40 32 0 0 0 0 0 0 0 29 0 0 0 0 0 0 0 0 0 0 0 0 35 0 32 0 30 0 0 0 0 0 25 0 0 0 0 0 0 21 22 0 0 0 0 0 0 
		14 0 0 0 0 0 0 0 0 0 0 20 22 0 0 0 0 0 31 0 0 0 0 0 0 0 0 0 0 0 0 0 0 0 0 35 0 0 0 0 0 0 0 0 0 0 0 0 0 0 0 0 0 0 21 0 0 0 0 0 0 0 0 0 40 0 0 0 0 29 0 20 0 0 0 0 0 0 0 0 0 0 0 0 37 0 0 0 0 32 0 0 0 
		15 0 0 0 0 0 0 28 0 0 0 0 0 0 0 0 0 0 0 29 0 0 0 0 0 0 0 0 0 0 31 0 0 0 27 0 0 0 32 0 22 0 0 0 0 0 37 0 0 0 0 0 0 0 0 0 25 0 0 38 0 0 22 0 0 0 0 0 0 0 0 0 0 24 0 0 21 0 0 0 0 0 0 35 0 0 0 0 0 0 0 0 0 
		16 0 37 0 0 0 0 0 0 0 30 0 0 0 0 0 0 0 0 24 39 0 0 0 0 0 0 0 0 0 0 0 0 0 0 0 0 30 0 0 0 26 0 0 0 0 0 0 0 0 0 0 0 0 0 0 0 0 0 0 0 0 0 0 0 0 26 0 0 0 0 0 0 0 0 0 0 0 0 0 0 0 0 0 0 0 0 0 0 0 0 0 0 
		17 0 0 0 26 0 0 0 0 0 0 0 0 0 0 31 0 0 0 0 0 0 0 0 0 0 0 32 0 0 37 0 0 40 0 0 0 0 0 0 0 0 0 0 0 0 0 0 0 0 0 30 0 0 0 0 0 0 0 0 0 0 0 0 0 29 0 0 0 0 0 0 0 0 0 34 0 0 0 0 0 0 0 0 0 0 0 0 0 0 0 0 0 
		18 0 35 0 0 0 0 0 0 0 0 0 27 0 0 0 29 24 0 0 0 0 32 0 0 0 0 0 0 0 0 0 0 0 39 0 0 0 21 0 0 0 0 0 0 0 0 33 0 0 0 0 0 33 0 0 0 0 0 0 0 0 0 0 0 0 0 0 0 0 0 0 25 30 0 0 24 0 0 0 0 0 33 0 0 0 0 0 30 0 0 0 0 
		19 0 0 0 0 0 0 0 35 0 0 0 0 0 0 0 0 39 0 0 0 0 0 0 0 0 0 0 0 0 0 0 0 0 0 0 0 0 0 0 0 0 0 0 0 0 0 0 0 0 29 0 0 22 0 0 0 0 0 0 0 0 20 0 0 0 0 0 0 0 0 0 34 0 0 0 0 0 0 0 0 0 0 0 0 0 0 0 0 0 0 0 0 
		20 0 0 0 0 0 0 30 0 0 0 0 0 0 0 0 0 0 0 0 0 0 0 0 0 0 40 0 0 0 38 0 0 0 0 0 0 0 0 0 0 26 0 0 0 29 0 0 0 0 0 0 0 0 0 0 0 0 0 0 0 0 0 0 0 0 0 0 0 0 0 0 0 0 0 0 0 0 0 0 0 0 0 0 0 0 0 32 0 0 0 0 0 
		21 0 37 23 0 0 31 0 0 0 0 0 0 32 0 0 0 0 0 32 0 0 0 0 0 0 0 0 0 0 0 0 0 0 24 0 0 0 0 0 0 0 0 0 0 0 0 0 0 0 0 0 0 24 0 0 0 32 0 0 0 0 23 0 0 0 0 28 0 0 0 0 0 0 36 0 26 0 0 0 0 0 0 0 0 0 0 0 0 0 21 0 0 
		22 0 0 0 0 0 0 0 0 0 0 0 0 0 0 0 0 0 0 0 0 0 0 0 0 0 0 0 0 0 0 0 0 26 0 0 0 0 0 0 0 0 0 0 0 0 0 0 0 29 0 0 0 0 0 37 0 0 0 0 0 0 0 0 0 0 0 0 0 0 0 0 0 0 31 0 0 0 0 0 36 0 0 0 0 0 0 0 0 0 0 0 0 
		23 0 21 0 0 0 0 0 0 0 0 0 0 0 0 0 0 0 0 0 0 0 0 0 0 0 0 0 0 0 0 0 0 0 0 0 0 0 0 0 0 0 0 0 34 0 0 0 0 0 0 0 0 0 0 0 0 0 0 0 0 0 0 0 0 0 0 0 0 0 0 0 0 0 0 0 0 0 0 0 0 0 0 0 38 0 0 0 0 0 0 0 0 
		24 0 0 0 0 0 0 0 0 24 0 0 0 0 38 0 0 0 0 0 0 0 0 0 0 0 0 0 0 0 0 0 0 0 0 0 0 0 0 0 0 0 0 0 0 0 0 0 0 0 32 0 0 0 0 34 31 0 0 0 0 0 0 26 0 25 0 30 40 0 0 25 0 0 0 0 23 24 0 0 0 0 0 0 0 0 0 0 0 35 0 0 0 
		25 0 0 0 0 0 0 0 0 0 20 0 0 0 0 0 0 0 0 0 0 40 0 0 0 0 0 0 0 0 0 0 0 0 0 0 0 0 0 0 0 0 0 0 0 0 0 33 0 0 0 0 0 0 0 0 0 0 0 0 0 0 0 0 0 0 0 0 0 0 0 0 0 0 0 0 0 0 0 0 0 0 0 0 0 0 37 0 0 0 0 0 0 
		26 0 29 0 0 0 0 0 0 35 0 27 0 0 33 0 0 0 32 0 0 0 0 0 0 0 0 0 20 0 0 0 0 0 0 35 0 0 0 0 0 0 0 0 0 0 0 0 0 0 0 0 0 0 25 0 35 0 0 0 0 0 0 0 28 0 0 0 0 0 0 0 0 0 0 0 36 0 0 0 0 0 0 0 0 0 0 0 0 0 0 0 0 
		27 30 0 0 0 0 35 23 0 0 0 0 0 0 0 0 0 0 0 0 0 0 0 0 0 0 0 20 0 0 0 0 0 0 0 0 0 0 0 0 0 0 0 0 0 0 0 0 30 0 0 0 0 0 34 34 0 24 0 0 0 0 0 0 0 0 0 0 0 0 35 0 0 0 20 0 36 0 0 0 38 0 0 0 0 0 0 0 0 0 0 0 27 
		28 0 0 0 0 0 0 0 0 0 35 0 0 0 0 0 0 0 0 0 0 0 0 0 0 0 0 0 0 0 0 0 0 0 0 0 0 0 0 0 0 0 0 0 0 0 0 28 0 0 0 0 0 0 0 0 0 0 0 0 0 0 0 0 0 0 24 0 0 0 0 0 0 0 0 0 0 0 0 32 0 0 0 0 0 0 0 21 0 0 0 0 0 
		29 0 0 0 0 0 0 33 39 0 0 0 21 0 0 0 31 0 37 0 0 38 0 0 0 0 0 0 0 0 0 0 0 0 0 0 0 0 0 0 0 0 36 0 0 0 0 0 36 0 0 0 0 0 0 0 0 0 0 21 30 0 0 0 0 31 0 0 0 30 0 0 0 0 0 0 0 0 37 0 0 0 0 23 0 0 38 0 0 0 0 0 0 
		30 0 0 0 0 0 0 0 23 0 0 0 0 0 25 0 0 0 0 0 0 0 0 0 0 0 0 0 0 0 0 0 0 0 0 0 0 0 31 0 0 0 0 0 0 0 0 0 0 0 0 0 0 0 0 0 0 0 0 0 0 34 0 0 28 0 0 40 0 0 0 0 0 0 0 0 0 0 0 0 0 0 0 0 0 27 0 0 0 0 0 39 0 
		31 0 0 0 0 0 0 27 0 0 29 0 0 0 0 0 0 0 0 0 0 0 0 0 0 0 0 0 0 0 0 0 0 0 0 0 0 0 0 0 0 0 0 27 0 0 23 0 0 0 0 0 0 0 0 0 0 0 0 39 27 0 0 23 0 0 0 0 0 0 0 35 0 0 0 39 33 0 0 0 0 0 0 0 0 0 0 0 0 0 0 0 31 
		32 0 0 0 0 0 0 0 0 0 0 0 0 0 0 0 0 0 40 0 0 0 0 26 0 0 0 0 0 0 0 0 0 0 0 0 0 0 0 0 0 33 39 0 0 0 0 0 0 0 0 0 0 0 0 0 0 0 0 24 0 26 0 0 0 0 0 40 0 0 0 0 0 0 0 0 31 0 0 0 0 0 0 0 0 0 0 35 0 0 0 23 0 
		33 0 22 0 0 0 0 0 0 0 0 0 0 0 0 0 27 0 0 39 0 0 24 0 0 0 0 0 0 0 0 0 0 0 0 0 0 0 0 0 0 0 0 0 0 0 0 26 0 0 21 0 0 0 0 0 0 0 0 0 0 0 0 0 0 0 0 0 0 0 0 0 0 0 0 0 0 0 0 0 0 0 0 0 0 0 0 0 38 0 0 0 0 
		34 0 0 24 0 0 20 0 0 0 0 0 0 0 36 35 0 0 0 0 0 0 0 0 0 0 0 35 0 0 0 0 0 0 0 0 0 0 0 0 0 0 0 0 0 0 0 0 0 34 0 0 0 0 20 0 0 0 0 0 0 24 0 0 33 39 0 0 0 28 0 0 21 0 0 0 0 0 0 0 0 0 0 36 0 26 0 0 0 0 0 0 0 
		35 0 0 0 29 0 0 0 26 0 0 0 0 0 0 0 0 0 0 0 0 0 0 0 0 0 0 0 0 0 0 0 0 0 0 0 0 0 32 0 0 0 0 0 0 0 32 0 0 0 0 37 0 0 0 0 0 0 0 0 0 0 0 0 0 0 0 0 31 0 0 0 0 0 0 0 0 37 29 0 0 0 0 0 0 0 0 0 0 0 0 0 0 
		36 0 0 0 0 0 0 0 0 0 26 0 0 0 0 0 0 30 0 0 0 0 0 0 0 0 0 0 0 0 0 0 0 0 0 0 0 0 0 0 33 0 0 0 0 0 33 0 0 0 0 0 0 0 0 0 0 0 0 0 0 0 0 0 0 0 0 0 0 0 0 0 37 0 0 40 0 0 0 0 0 0 0 0 0 0 0 0 0 0 0 0 0 
		37 0 0 0 0 0 0 0 0 0 0 0 0 0 0 0 32 0 0 21 0 0 0 0 0 0 0 0 0 0 0 31 0 0 0 0 32 0 0 22 0 0 0 0 0 0 0 0 0 0 0 0 0 0 0 0 0 0 0 0 0 0 0 0 0 0 0 31 0 0 0 0 0 0 0 29 0 0 0 0 0 0 40 0 0 0 0 0 25 0 0 32 28 
		38 0 0 0 0 28 0 0 0 0 0 0 0 37 0 0 0 0 0 0 0 0 0 0 0 0 0 0 0 0 0 0 0 0 0 0 0 0 22 0 0 0 0 0 0 0 0 0 0 33 0 0 0 0 0 0 0 0 0 0 0 0 0 0 0 0 0 0 0 0 0 0 35 26 0 0 0 0 0 0 0 0 0 0 0 0 0 0 0 0 0 0 0 
		39 0 32 0 0 0 0 0 0 0 0 0 0 0 0 0 22 0 0 0 0 0 0 0 0 0 0 0 0 0 0 0 0 0 0 0 0 33 0 0 0 0 0 0 0 0 0 0 0 0 0 0 0 0 0 0 0 0 0 0 0 0 0 0 0 0 0 0 0 0 0 0 0 33 0 0 0 0 0 0 0 0 37 0 0 0 0 0 0 0 0 0 0 
		40 0 0 0 0 0 0 23 24 0 0 0 0 0 0 0 0 26 0 0 0 26 0 0 0 0 0 0 0 0 0 0 0 33 0 0 0 0 0 0 0 0 0 0 0 36 0 0 0 0 0 0 0 0 20 0 25 0 0 0 0 0 0 0 0 0 0 0 0 0 0 0 0 0 0 0 0 0 23 0 0 0 0 0 0 0 0 34 0 0 0 22 0 
		41 0 0 0 0 0 0 0 0 0 0 0 0 0 32 0 0 0 0 0 0 0 0 0 0 0 0 0 0 0 36 0 0 39 0 0 0 0 0 0 0 0 0 0 0 0 0 0 0 0 0 22 0 0 0 0 0 0 0 0 0 0 0 0 0 0 0 0 0 0 0 0 0 0 0 35 0 0 0 0 0 0 0 0 0 0 0 0 0 0 0 0 0 
		42 0 0 0 0 0 0 0 0 0 0 0 0 0 0 0 0 0 0 0 0 0 0 0 0 0 0 0 0 0 0 0 27 0 0 0 0 0 0 0 0 0 0 0 0 0 0 0 0 0 0 0 0 23 0 0 0 0 0 0 0 0 0 0 30 0 0 0 0 0 0 0 0 0 0 0 0 0 0 0 0 0 0 0 0 0 21 0 0 0 0 0 0 
		43 0 0 0 0 0 0 0 0 0 0 0 0 0 0 0 0 0 0 0 0 0 0 0 34 0 0 0 0 0 0 0 0 0 0 0 0 0 0 0 0 0 0 0 0 0 0 0 0 0 0 0 0 0 0 0 0 0 0 0 0 38 0 0 0 0 0 0 0 0 39 0 0 0 26 0 0 0 0 0 0 0 0 0 0 0 0 0 0 35 0 0 0 
		44 0 0 0 0 0 0 0 0 0 29 0 0 0 0 0 0 0 0 0 0 29 0 0 0 0 0 0 0 0 0 0 0 0 0 0 0 0 0 0 0 36 0 0 0 0 33 0 0 0 25 0 0 22 0 0 0 0 0 23 0 0 0 0 0 0 0 0 0 37 0 0 0 0 0 0 0 0 33 0 0 0 0 0 0 0 0 0 0 0 0 0 0 
		45 0 0 0 0 0 0 0 0 0 23 0 0 0 40 0 37 0 0 0 0 0 0 0 0 0 0 0 0 0 0 0 23 0 0 0 32 33 0 0 0 0 0 0 0 33 0 29 0 0 0 31 0 0 0 0 0 26 0 0 0 0 0 0 0 0 0 0 0 0 0 0 0 0 0 20 0 0 20 0 0 0 0 0 0 0 0 0 0 0 0 30 36 
		46 37 0 0 0 0 0 0 0 0 0 0 0 0 32 0 0 0 0 33 0 0 0 0 0 0 33 0 0 28 0 0 0 0 26 0 0 0 0 0 0 0 0 0 0 0 29 0 0 39 0 0 0 0 0 0 0 0 30 0 0 0 0 0 29 0 0 33 0 0 0 0 0 27 0 0 0 0 0 20 0 0 40 0 22 0 0 0 0 0 0 0 0 
		47 0 0 0 0 0 0 0 0 0 0 0 0 0 0 0 0 0 0 0 0 0 0 0 0 0 0 0 30 0 36 0 0 0 0 0 0 0 0 0 0 0 0 0 0 0 0 0 0 0 0 0 0 0 0 0 0 0 0 0 0 0 0 0 0 34 0 0 0 0 0 0 0 30 0 0 0 0 0 0 0 0 0 0 0 37 0 0 0 0 0 0 0 
		48 0 0 0 0 0 0 0 0 0 0 0 0 0 0 0 0 0 0 0 0 0 0 29 0 0 0 0 0 0 0 0 0 0 0 34 0 0 0 33 0 0 0 0 0 0 0 39 0 0 0 0 0 0 0 0 0 0 0 0 0 0 0 0 0 0 0 0 0 0 0 0 0 0 37 0 0 28 0 0 0 0 0 0 0 0 0 0 0 34 0 0 0 
		49 38 0 0 0 0 0 0 0 0 0 0 0 0 0 0 0 0 0 0 29 0 0 0 0 32 0 0 0 0 0 0 0 0 21 0 0 0 0 0 0 0 0 0 0 25 0 0 0 0 0 0 0 0 0 0 0 0 0 0 0 0 0 0 0 0 0 0 0 33 0 0 0 0 0 0 0 0 0 0 0 20 0 0 0 0 24 33 0 0 0 0 0 
		50 0 0 0 0 0 0 34 0 0 0 0 0 0 0 0 0 0 30 0 0 0 0 0 0 0 0 0 0 0 0 0 0 0 0 0 37 0 0 0 0 0 22 0 0 0 31 0 0 0 0 0 20 0 0 0 0 0 0 24 0 0 0 0 0 0 0 0 0 0 0 0 0 0 0 0 0 0 0 0 0 0 0 0 0 0 0 0 0 0 0 24 0 
		51 0 32 0 0 0 0 0 0 0 0 0 0 37 0 0 0 0 0 0 0 0 0 0 0 0 0 0 0 0 0 0 0 0 0 0 0 0 0 0 0 0 0 0 0 0 0 0 0 0 0 20 0 0 0 0 0 0 0 0 0 0 0 0 0 0 0 0 26 0 0 0 0 34 0 0 0 0 0 0 0 0 0 0 26 0 0 0 33 0 0 0 0 
		52 0 0 0 0 0 0 0 0 0 0 0 0 0 0 0 0 0 0 33 22 0 24 0 0 0 0 0 0 0 0 0 0 0 0 0 0 0 0 0 0 0 0 23 0 22 0 0 0 0 0 0 0 0 0 0 0 0 0 0 0 0 0 0 20 0 0 0 0 0 0 0 0 0 0 0 0 0 0 0 31 0 0 0 0 0 32 0 0 0 0 0 0 
		53 0 0 0 25 0 0 0 0 0 0 0 0 0 0 21 0 0 0 0 0 0 0 0 0 0 0 25 34 0 0 0 0 0 0 20 0 0 0 0 0 20 0 0 0 0 0 0 0 0 0 0 0 0 0 0 0 0 0 0 0 0 0 36 0 20 0 0 0 34 0 0 0 0 0 0 0 0 0 0 0 0 0 0 0 0 0 0 0 0 31 0 0 
		54 0 0 39 0 0 0 22 0 0 20 0 0 0 29 0 0 0 0 0 0 0 0 37 0 34 0 0 34 0 0 0 0 0 0 0 0 0 0 0 0 0 0 0 0 0 0 0 0 0 0 0 0 0 0 0 0 0 0 0 0 23 0 39 0 0 0 0 35 0 0 20 0 0 0 0 39 0 0 0 25 0 0 0 0 0 0 0 0 0 0 0 29 
		55 0 0 0 0 0 0 22 0 0 0 0 0 0 0 0 25 0 0 0 0 0 0 0 0 31 0 35 0 0 0 0 0 0 0 0 0 0 0 0 0 25 0 0 0 0 0 0 0 0 0 0 0 0 0 0 0 0 0 0 0 0 0 37 0 0 0 0 0 0 0 0 0 0 0 0 0 0 0 0 0 0 0 35 0 0 0 20 0 0 0 24 0 
		56 0 0 0 0 0 0 0 0 0 0 36 0 0 0 0 0 0 0 0 0 0 32 0 0 0 0 0 24 0 0 0 0 0 0 0 0 0 0 0 0 0 0 0 0 0 26 0 0 0 0 0 0 0 0 0 0 0 0 0 0 0 0 0 0 0 0 0 0 0 0 0 0 0 0 0 31 0 0 0 27 0 0 0 0 38 0 0 0 0 0 0 0 
		57 0 0 0 0 33 0 0 0 0 0 0 0 0 0 0 0 0 0 0 0 0 0 0 0 0 0 0 0 0 0 0 0 0 0 0 0 0 0 0 0 0 0 0 0 0 0 30 0 0 0 0 0 0 0 0 0 0 0 0 0 0 29 0 0 23 21 39 0 0 0 0 0 0 0 21 0 0 0 29 0 0 0 31 32 0 26 0 0 0 0 0 0 
		58 0 0 0 26 0 0 25 0 0 0 25 0 0 0 0 38 0 0 0 0 0 0 0 0 0 0 0 0 0 21 0 39 24 0 0 0 0 0 0 0 0 0 0 0 23 0 0 0 0 0 24 0 0 0 0 0 0 0 0 0 0 0 28 0 0 0 0 0 0 0 0 0 0 0 0 0 0 0 0 0 28 0 0 0 0 38 0 0 21 0 0 0 
		59 0 0 0 0 0 35 0 0 0 0 0 0 0 0 0 0 0 0 0 0 0 0 0 0 0 0 0 0 0 30 0 27 0 0 0 0 0 0 0 0 0 0 0 0 0 0 0 0 0 0 0 0 0 0 0 0 0 0 0 0 0 0 0 0 0 0 0 0 0 0 0 0 0 0 0 0 0 0 0 0 0 0 0 0 0 0 0 0 0 0 0 29 
		60 0 0 34 0 32 0 0 0 30 0 32 0 22 0 0 0 0 0 0 0 0 0 0 0 0 0 0 0 0 0 34 0 26 0 24 0 0 0 0 0 0 0 0 38 0 0 0 0 0 0 0 0 0 0 23 0 0 0 0 0 0 0 0 0 0 0 0 0 0 0 0 0 0 0 0 0 0 0 0 0 0 26 0 36 0 0 0 0 0 0 0 0 
		61 0 0 0 0 31 0 0 0 0 37 0 0 0 0 0 22 0 0 0 20 0 23 0 0 0 0 0 0 0 0 0 0 0 0 0 0 0 0 0 0 0 0 0 0 0 0 0 0 0 0 0 0 0 0 0 0 0 29 0 0 0 0 0 0 0 0 24 0 0 0 0 0 38 0 0 0 0 0 37 0 0 0 0 0 37 35 0 0 0 0 0 0 
		62 0 0 30 0 0 0 0 0 0 0 0 0 0 0 0 0 0 0 0 0 0 0 0 0 26 0 0 0 0 0 0 23 0 0 0 0 0 0 0 0 0 0 0 0 0 0 0 0 0 0 0 0 0 36 39 37 0 0 28 0 0 0 0 0 0 0 0 32 0 0 35 37 0 0 26 0 0 0 0 0 0 0 0 0 0 0 0 0 0 0 38 0 
		63 0 0 0 0 0 0 0 0 26 0 23 0 0 0 40 0 0 0 0 0 0 0 0 0 0 0 28 0 0 0 28 0 0 0 33 0 0 0 0 0 0 0 30 0 0 0 29 0 0 0 0 0 20 0 0 0 0 0 0 0 0 0 0 0 0 0 0 0 33 0 37 0 29 35 0 0 0 0 0 0 0 21 0 0 0 0 0 0 0 0 0 0 
		64 0 0 0 0 0 0 0 0 0 0 38 34 0 0 0 0 0 29 0 0 0 0 0 0 25 0 0 0 0 31 0 0 0 0 39 0 0 0 0 0 0 0 0 0 0 0 0 34 0 0 0 0 0 20 0 0 0 23 0 0 0 0 0 0 0 0 0 0 0 0 0 0 0 0 0 0 0 0 0 0 0 0 0 0 0 0 0 0 0 0 0 0 
		65 0 0 0 0 0 0 0 0 0 0 0 0 0 0 0 0 26 0 0 0 0 0 0 0 0 0 0 0 24 0 0 0 0 0 0 0 0 0 0 0 0 0 0 0 0 0 0 0 0 0 0 0 0 0 0 0 0 21 0 0 0 0 0 0 0 0 0 0 0 0 0 0 0 0 0 0 0 0 0 0 0 0 0 0 0 26 0 0 0 0 0 0 
		66 0 0 0 0 0 0 0 0 0 0 0 0 0 0 0 0 0 0 0 0 0 28 0 0 30 0 0 0 0 0 40 0 40 0 0 0 0 31 0 0 0 0 0 0 0 0 33 0 0 0 0 0 0 0 0 0 0 39 0 0 0 24 0 0 0 0 0 0 0 31 0 0 0 0 0 30 0 0 0 0 0 0 0 0 0 0 0 0 0 0 0 0 
		67 26 0 25 0 34 36 0 36 0 0 0 0 0 35 0 0 0 0 0 0 0 0 0 0 40 0 0 0 0 0 0 0 0 0 0 31 0 0 0 0 0 0 0 0 0 0 0 0 0 0 0 26 0 0 35 0 0 0 0 0 0 0 32 0 0 0 0 0 0 0 0 33 0 0 32 0 0 0 0 0 0 0 28 0 0 0 0 0 0 0 23 0 
		68 0 0 0 0 0 0 0 0 31 0 0 0 0 0 29 0 0 0 0 0 0 0 0 0 0 0 0 0 0 30 0 0 0 0 28 0 0 0 0 0 0 0 0 0 37 0 0 0 0 33 0 0 0 34 0 0 0 0 0 0 0 0 0 33 0 0 0 0 0 32 0 0 0 0 0 0 0 0 0 0 0 0 0 0 0 0 0 0 25 0 0 0 
		69 0 0 0 0 0 0 0 0 0 0 0 0 0 32 0 0 0 0 0 0 0 0 0 0 0 0 0 35 0 0 0 0 0 0 0 0 0 0 0 0 0 0 0 39 0 0 0 0 0 0 0 0 0 0 0 0 0 0 0 0 0 0 0 0 0 0 31 0 32 0 0 24 0 0 0 0 0 0 0 0 0 0 0 0 0 0 0 0 0 32 26 0 
		70 0 0 0 0 0 0 0 34 0 0 0 0 0 0 20 0 0 0 0 0 0 0 0 0 25 0 0 0 0 0 0 35 0 0 0 0 0 0 0 0 0 0 0 0 0 0 0 0 0 0 0 0 0 0 20 0 0 0 0 0 0 0 35 37 0 0 0 0 0 0 0 0 0 0 0 21 20 0 0 0 0 0 26 0 0 0 0 0 35 0 35 0 
		71 0 0 23 0 28 0 0 0 0 0 0 0 0 30 0 0 0 0 25 34 0 0 0 0 0 0 0 0 0 0 0 0 0 0 21 0 37 0 35 0 0 0 0 0 0 0 0 0 0 0 0 0 0 0 0 0 0 0 0 0 0 0 37 0 0 0 0 33 0 24 0 0 0 0 0 0 0 0 0 0 0 0 37 0 0 0 0 0 0 0 0 0 
		72 0 0 0 0 25 0 0 0 0 0 0 0 0 0 0 24 0 0 30 0 0 0 0 0 0 0 0 0 0 0 0 0 0 0 0 0 0 0 26 33 0 0 0 0 0 0 27 30 0 0 0 34 0 0 0 0 0 0 0 0 0 38 0 29 0 0 0 0 0 0 0 0 0 0 0 25 0 0 0 0 0 0 0 0 0 0 0 0 0 0 0 0 
		73 0 0 0 0 0 0 0 0 0 0 36 0 0 0 0 0 0 0 0 0 0 36 31 0 0 0 0 20 0 0 0 0 0 0 0 0 0 0 0 0 0 0 0 26 0 0 0 0 37 0 0 0 0 0 0 0 0 0 0 0 0 0 0 35 0 0 0 0 0 0 0 0 0 0 0 0 0 0 0 0 0 0 0 0 0 0 0 0 0 0 0 0 
		74 0 0 0 0 0 0 0 0 0 0 0 0 0 0 0 0 0 34 0 0 0 0 0 0 0 0 0 0 0 0 0 39 0 0 0 0 40 29 0 0 0 35 0 0 0 20 0 0 0 0 0 0 0 0 0 0 0 21 0 0 0 0 26 0 0 0 0 32 0 0 0 0 0 0 0 0 0 0 0 0 0 0 0 0 0 0 0 0 0 0 0 0 
		75 0 0 35 0 0 0 0 21 0 0 0 37 0 0 0 21 0 0 24 0 0 26 0 0 23 0 36 36 0 0 0 33 31 0 0 0 0 0 0 0 0 0 0 0 0 0 0 0 0 0 0 0 0 0 39 0 31 0 0 0 0 0 0 0 0 0 30 0 0 0 21 0 25 0 0 0 0 0 0 0 0 0 0 0 0 0 0 0 0 0 0 0 
		76 0 0 0 0 21 24 0 30 0 0 0 0 0 0 0 0 0 0 0 0 0 0 0 0 24 0 0 0 0 0 0 0 0 0 0 37 0 0 0 0 0 0 0 0 0 0 0 0 28 0 0 0 0 0 0 0 0 0 0 0 0 0 0 0 0 0 0 0 0 0 20 0 0 0 0 0 0 0 0 0 0 29 0 0 0 0 0 0 31 0 0 0 
		77 0 0 0 0 0 0 0 0 0 39 0 0 0 25 0 0 0 0 0 0 0 0 0 0 0 0 0 0 0 37 0 0 0 0 0 29 0 0 0 0 23 0 0 0 33 20 0 0 0 0 0 0 0 0 0 0 0 0 0 0 0 0 0 0 0 0 0 0 0 0 0 0 0 0 0 0 0 0 0 0 0 0 0 0 0 0 0 0 0 0 0 0 
		78 0 0 0 0 0 0 0 0 0 0 0 0 0 0 0 0 0 0 0 0 0 0 0 0 0 0 0 0 32 0 0 0 0 0 0 0 0 0 0 0 0 0 0 0 0 0 20 0 0 0 0 0 0 0 0 0 0 29 0 0 0 37 0 0 0 0 0 0 0 0 0 0 0 0 0 0 0 0 0 0 0 0 0 0 0 0 0 0 0 0 0 0 
		79 0 0 0 0 0 0 0 28 0 0 0 0 0 0 0 0 0 0 0 0 0 0 36 0 0 0 0 38 0 0 0 0 0 0 0 0 0 0 0 0 0 0 0 0 0 0 0 0 0 0 0 0 31 0 25 0 27 0 0 0 0 0 0 0 0 0 0 0 0 0 0 0 0 0 0 0 0 0 0 0 0 0 0 0 0 0 0 0 0 0 0 0 
		80 31 0 0 0 0 36 0 24 0 0 0 0 0 0 0 0 0 0 0 0 0 0 0 0 0 0 0 0 0 0 0 0 0 0 0 0 0 0 0 0 0 0 0 0 0 0 0 0 0 20 0 0 0 0 0 0 0 0 28 0 0 0 0 0 0 0 0 0 0 0 0 0 0 0 0 0 0 0 0 0 0 0 30 0 0 0 0 0 0 0 0 0 
		81 0 0 0 0 0 0 0 0 0 0 0 0 0 0 0 0 0 0 33 0 0 0 0 0 0 0 0 0 0 0 0 0 0 0 0 0 0 40 0 37 0 0 0 0 0 0 40 0 0 0 0 0 0 0 0 0 0 0 0 0 26 0 0 21 0 0 0 0 0 0 0 0 0 0 0 0 29 0 0 0 0 0 0 23 0 0 0 0 0 24 0 0 
		82 25 22 0 0 0 0 0 0 0 0 0 0 26 0 0 35 0 0 0 0 0 0 0 0 0 0 0 0 0 23 0 0 0 0 36 0 0 0 0 0 0 0 0 0 0 0 0 0 0 0 0 0 0 0 0 35 0 31 0 0 0 0 0 0 0 0 0 28 0 0 26 37 0 0 0 0 0 0 0 0 30 0 0 30 0 0 0 26 0 0 0 0 
		83 0 0 0 0 0 0 0 0 0 0 0 0 0 0 37 0 0 0 0 0 0 0 0 38 0 0 0 0 0 0 0 0 0 0 0 0 0 0 0 0 0 0 0 0 0 0 22 0 0 0 0 26 0 0 0 0 0 32 0 0 36 0 0 0 0 0 0 0 0 0 0 0 0 0 0 0 0 0 0 0 0 23 30 0 0 0 0 0 0 0 0 0 
		84 0 0 0 0 0 0 0 25 0 0 0 0 0 21 0 0 0 0 0 0 0 0 0 0 0 0 0 0 0 0 27 0 0 0 26 0 0 0 0 0 0 0 0 0 0 0 0 37 0 0 0 0 0 0 0 0 38 0 0 0 0 37 0 0 0 0 0 0 0 0 0 0 0 0 0 0 0 0 0 0 0 0 0 0 0 0 0 0 0 0 0 0 
		85 0 0 23 0 0 0 0 0 27 0 0 0 0 22 0 0 0 0 0 0 0 0 0 0 0 37 0 0 0 38 0 0 0 0 0 0 0 0 0 0 0 0 21 0 0 0 0 0 0 24 0 0 32 0 0 0 0 26 38 0 0 35 0 0 0 26 0 0 0 0 0 0 0 0 0 0 0 0 0 0 0 0 0 0 0 0 0 0 0 0 0 0 
		86 0 0 0 0 0 0 23 0 0 0 0 0 0 0 0 0 0 0 0 0 32 0 0 0 0 0 0 0 21 0 0 0 35 0 0 0 0 0 0 0 34 0 0 0 0 0 0 0 0 33 0 0 0 0 0 20 0 0 0 0 0 0 0 0 0 0 0 0 0 0 0 0 0 0 0 0 0 0 0 0 0 0 0 0 0 0 0 0 0 0 0 0 
		87 0 23 0 0 0 0 0 0 0 0 0 0 0 0 0 0 0 0 30 0 0 0 0 0 0 0 0 0 0 0 0 0 0 38 0 0 0 25 0 0 0 0 0 0 0 0 0 0 0 0 0 33 0 0 0 0 0 0 0 0 0 0 0 0 0 0 0 0 0 0 0 0 0 0 0 0 0 0 0 0 0 0 26 0 0 0 0 0 0 0 0 0 
		88 0 0 0 23 0 25 0 34 0 0 0 0 0 0 32 0 0 0 0 0 0 0 0 0 35 0 0 0 0 0 0 0 0 0 0 0 0 0 0 0 0 0 0 35 0 0 0 0 34 0 0 0 0 0 0 0 0 0 21 0 0 0 0 0 0 0 0 0 25 0 35 0 0 0 0 0 31 0 0 0 0 0 0 0 0 0 0 0 0 0 0 30 
		89 0 0 0 0 0 0 0 0 0 0 0 0 0 0 0 0 0 0 0 0 0 21 0 0 0 0 0 0 0 0 0 0 0 0 0 0 0 0 0 0 0 0 0 0 0 0 0 0 0 0 0 0 0 31 0 0 0 0 0 0 0 0 0 0 0 0 0 0 0 32 0 0 0 0 0 0 0 0 0 0 0 24 0 0 0 0 0 0 0 0 0 0 
		90 0 0 0 0 0 0 0 0 0 0 37 0 0 0 0 0 0 0 0 0 0 0 0 0 0 0 0 0 0 0 39 0 23 0 0 0 0 32 0 0 22 0 0 0 0 30 0 0 0 0 24 0 0 0 0 24 0 0 0 0 0 0 38 0 0 0 0 23 0 26 35 0 0 0 0 0 0 0 0 0 0 0 0 0 0 0 0 0 0 0 0 0 
		91 0 0 0 0 0 0 39 0 0 0 0 28 0 0 0 0 0 0 0 0 0 0 0 0 0 0 0 27 0 0 0 31 0 0 0 0 0 28 0 0 0 0 0 0 0 36 0 0 0 0 0 0 0 0 29 0 0 0 0 29 0 0 0 0 0 0 0 0 0 0 0 0 0 0 0 0 0 0 0 0 0 0 0 0 0 0 0 0 30 0 0 0 
;
